
Gurobi 11.0.0 (linux64) logging started Mon Apr 15 08:57:11 2024

Set parameter LogFile to value "/lustre1/scratch/348/vsc34888/JointResearch/05.Models/06.Benchmarking/L.Cont_Investments_per_hour/RTS24_ByStages_nc70/openStarNet_RTS24_ByStages_nc70.log"
Set parameter Method to value 2
Set parameter MIPFocus to value 1
Set parameter Presolve to value 2
Set parameter RINS to value 100
Set parameter MIPGap to value 0.01
Set parameter Threads to value 36
Set parameter TimeLimit to value 259200
Set parameter IterationLimit to value 760000000
Gurobi Optimizer version 11.0.0 build v11.0.0rc2 (linux64 - "Rocky Linux 8.8 (Green Obsidian)")

CPU model: Intel(R) Xeon(R) Gold 6140 CPU @ 2.30GHz, instruction set [SSE2|AVX|AVX2|AVX512]
Thread count: 36 physical cores, 36 logical processors, using up to 36 threads

Optimize a model with 27233 rows, 16311 columns and 72712 nonzeros
Model fingerprint: 0x24953d94
Variable types: 16281 continuous, 30 integer (30 binary)
Coefficient statistics:
  Matrix range     [3e-02, 5e+02]
  Objective range  [1e+00, 1e+00]
  Bounds range     [4e-04, 3e+00]
  RHS range        [4e-04, 3e+00]
Presolve removed 14617 rows and 7683 columns
Presolve time: 0.16s
Presolved: 12616 rows, 8628 columns, 44454 nonzeros
Variable types: 8598 continuous, 30 integer (30 binary)
Found heuristic solution: objective 316.9181531
Root relaxation presolved: 12616 rows, 8628 columns, 44454 nonzeros

Root barrier log...

Ordering time: 0.01s

Barrier statistics:
 Dense cols : 30
 AA' NZ     : 9.334e+04
 Factor NZ  : 2.433e+05 (roughly 10 MB of memory)
 Factor Ops : 5.180e+06 (less than 1 second per iteration)
 Threads    : 36

                  Objective                Residual
Iter       Primal          Dual         Primal    Dual     Compl     Time
   0   7.91011580e+05 -4.62219181e+07  6.18e+00 1.31e+02  5.07e+03     0s
   1   1.30497003e+05 -1.31445757e+07  8.40e-01 2.23e-09  7.41e+02     0s
   2   4.37068979e+04 -1.99727529e+06  1.42e-01 1.72e-09  9.08e+01     0s
   3   1.63726773e+04 -2.51942587e+05  1.21e-13 1.04e-10  1.01e+01     0s
   4   3.84022281e+03 -2.40244048e+04  1.81e-13 8.87e-12  1.05e+00     0s
   5   6.60081525e+02 -5.04483752e+03  1.92e-13 1.80e-12  2.15e-01     0s
   6   5.13110744e+02 -2.56940068e+03  2.73e-13 9.29e-13  1.16e-01     0s
   7   4.14784253e+02 -8.64737564e+02  1.87e-13 9.09e-13  4.82e-02     0s
   8   2.79437390e+02 -1.70419153e+02  1.81e-13 9.09e-13  1.69e-02     0s
   9   2.37356169e+02 -1.24866304e+01  1.06e-13 9.09e-13  9.40e-03     0s
  10   2.09896700e+02  7.59499139e+01  2.98e-13 9.09e-13  5.04e-03     0s
  11   1.84069261e+02  1.30112071e+02  5.08e-13 9.09e-13  2.03e-03     0s
  12   1.71546502e+02  1.51391095e+02  1.59e-12 1.82e-12  7.59e-04     0s
  13   1.68126875e+02  1.56281777e+02  4.34e-12 9.09e-13  4.46e-04     0s
  14   1.65514300e+02  1.58255218e+02  2.83e-12 9.09e-13  2.73e-04     0s
  15   1.65057115e+02  1.58753992e+02  2.78e-12 9.09e-13  2.37e-04     0s
  16   1.63365164e+02  1.61017657e+02  2.49e-11 9.09e-13  8.84e-05     0s
  17   1.62882214e+02  1.61256338e+02  1.57e-11 9.09e-13  6.12e-05     0s
  18   1.62428126e+02  1.61906633e+02  1.05e-11 9.09e-13  1.96e-05     0s
  19   1.62279291e+02  1.62025367e+02  8.89e-12 9.09e-13  9.56e-06     0s
  20   1.62189447e+02  1.62056063e+02  1.83e-11 4.55e-13  5.02e-06     0s
  21   1.62139403e+02  1.62105264e+02  1.67e-11 4.55e-13  1.29e-06     0s
  22   1.62131551e+02  1.62117441e+02  1.45e-10 9.09e-13  5.31e-07     0s
  23   1.62129850e+02  1.62122777e+02  1.01e-10 9.09e-13  2.66e-07     1s
  24   1.62126796e+02  1.62124746e+02  2.19e-10 9.09e-13  7.72e-08     1s
  25   1.62125521e+02  1.62125386e+02  6.80e-10 9.09e-13  5.06e-09     1s
  26   1.62125468e+02  1.62125464e+02  3.36e-09 9.09e-13  1.41e-10     1s
  27   1.62125467e+02  1.62125467e+02  5.21e-11 9.09e-13  2.90e-13     1s

Barrier solved model in 27 iterations and 0.54 seconds (0.48 work units)
Optimal objective 1.62125467e+02


Root relaxation: objective 1.621255e+02, 1725 iterations, 0.36 seconds (0.22 work units)

    Nodes    |    Current Node    |     Objective Bounds      |     Work
 Expl Unexpl |  Obj  Depth IntInf | Incumbent    BestBd   Gap | It/Node Time

     0     0  162.12547    0   21  316.91815  162.12547  48.8%     -    0s
     0     0  165.31100    0   19  316.91815  165.31100  47.8%     -    1s
H    0     0                     306.2750225  165.31100  46.0%     -    1s
H    0     0                     246.2917340  165.31358  32.9%     -    1s
     0     0  165.31358    0   19  246.29173  165.31358  32.9%     -    1s
     0     0  165.65237    0   19  246.29173  165.65237  32.7%     -    1s
     0     0  165.65237    0   19  246.29173  165.65237  32.7%     -    2s
H    0     0                     233.7943398  165.69146  29.1%     -    2s
     0     0  165.69146    0   18  233.79434  165.69146  29.1%     -    2s
     0     0  165.69575    0   18  233.79434  165.69575  29.1%     -    2s
     0     0  165.69575    0   18  233.79434  165.69575  29.1%     -    2s
     0     0  165.81248    0   16  233.79434  165.81248  29.1%     -    2s
     0     0  165.82853    0   16  233.79434  165.82853  29.1%     -    2s
     0     0  165.82913    0   16  233.79434  165.82913  29.1%     -    2s
     0     0  165.82913    0   16  233.79434  165.82913  29.1%     -    2s
     0     0  167.27079    0   17  233.79434  167.27079  28.5%     -    4s
H    0     0                     232.3980737  167.27079  28.0%     -    4s
H    0     0                     195.8585129  167.27079  14.6%     -   27s
     0     2  167.27079    0   17  195.85851  167.27079  14.6%     -   27s
H   97   130                     195.5699118  171.82171  12.1%   641   51s
H   98   130                     195.4732076  171.82171  12.1%   642   51s
H  119   130                     195.3911521  171.82171  12.1%   609   51s
H  125   130                     195.2256856  171.82171  12.0%   602   51s
   711   449  194.03903   11   12  195.22569  173.91077  10.9%   377   55s
  1233   537  181.91777   10   12  195.22569  175.14381  10.3%   344   64s
  1298   581  183.68481   10   12  195.22569  175.14381  10.3%   342   92s
  1897   729  184.33608    9   12  195.22569  175.95873  9.87%   333  117s
  2895   916     cutoff   13       195.22569  181.12337  7.22%   301  146s
  4805  1283     cutoff   11       195.22569  185.21799  5.13%   270  150s
  5799  1391  192.13023   10   12  195.22569  186.03546  4.71%   258  180s
  7287  1551  190.86346   12   10  195.22569  186.81673  4.31%   245  199s
  7849  1652     cutoff   18       195.22569  187.24244  4.09%   240  200s
  8596  1707  191.70623   16    7  195.22569  187.39907  4.01%   235  222s
  8991  1817  190.68233   15    8  195.22569  187.68646  3.86%   233  247s
  9665  1818  191.26242   17   17  195.22569  187.94739  3.73%   229  272s
  9667  1819  189.44383   12   19  195.22569  187.94739  3.73%   229  275s
  9678  1827  189.81630   15   14  195.22569  187.94739  3.73%   229  293s
  9775  1922  187.94739   22   16  195.22569  187.94739  3.73%   233  312s
  9970  2004     cutoff   24       195.22569  187.94739  3.73%   235  323s
 10324  2009     cutoff   27       195.22569  187.94739  3.73%   238  325s
 10698  1957     cutoff   28       195.22569  187.94739  3.73%   239  341s
 11194  1893     cutoff   29       195.22569  187.94739  3.73%   241  346s
 13148  1507     cutoff   26       195.22569  187.94739  3.73%   241  350s
 15887  1098  194.81080   27    7  195.22569  188.37577  3.51%   231  368s
 17447  1135     cutoff   30       195.22569  189.73885  2.81%   224  370s
 18680  1066  193.09613   30    6  195.22569  190.20637  2.57%   219  377s
 20966   713  193.92357   29    5  195.22569  191.73313  1.79%   209  389s
 21859   284     cutoff   34       195.22569  192.32074  1.49%   205  390s
 22980     7     cutoff   32       195.22569  192.88996  1.20%   201  398s

Cutting planes:
  Implied bound: 835
  MIR: 309
  Flow cover: 522
  Relax-and-lift: 51

Explored 23409 nodes (4646952 simplex iterations) in 398.68 seconds (441.98 work units)
Thread count was 36 (of 36 available processors)

Solution count 10: 195.226 195.391 195.473 ... 316.918

Optimal solution found (tolerance 1.00e-02)
Best objective 1.952256855604e+02, best bound 1.944474458970e+02, gap 0.3986%

Gurobi 11.0.0 (linux64) logging started Mon Apr 15 09:03:53 2024

Set parameter LogFile to value "/lustre1/scratch/348/vsc34888/JointResearch/05.Models/06.Benchmarking/L.Cont_Investments_per_hour/RTS24_ByStages_nc70/openStarNet_RTS24_ByStages_nc70.log"
Set parameter Method to value 2
Set parameter MIPFocus to value 1
Set parameter Presolve to value 2
Set parameter RINS to value 100
Set parameter MIPGap to value 0.01
Set parameter Threads to value 36
Set parameter TimeLimit to value 259200
Set parameter IterationLimit to value 760000000
Gurobi Optimizer version 11.0.0 build v11.0.0rc2 (linux64 - "Rocky Linux 8.8 (Green Obsidian)")

CPU model: Intel(R) Xeon(R) Gold 6140 CPU @ 2.30GHz, instruction set [SSE2|AVX|AVX2|AVX512]
Thread count: 36 physical cores, 36 logical processors, using up to 36 threads

Optimize a model with 27233 rows, 16281 columns and 64282 nonzeros
Model fingerprint: 0x0da5387b
Coefficient statistics:
  Matrix range     [3e-02, 5e+02]
  Objective range  [1e+00, 1e+00]
  Bounds range     [4e-04, 3e+00]
  RHS range        [4e-04, 5e+01]
Presolve removed 23297 rows and 9503 columns
Presolve time: 0.03s
Presolved: 3936 rows, 6848 columns, 17784 nonzeros

Ordering time: 0.00s

Barrier statistics:
 AA' NZ     : 1.066e+04
 Factor NZ  : 3.454e+04 (roughly 3 MB of memory)
 Factor Ops : 4.938e+05 (less than 1 second per iteration)
 Threads    : 1

                  Objective                Residual
Iter       Primal          Dual         Primal    Dual     Compl     Time
   0   1.47202789e+06 -4.62887843e+07  2.98e+00 1.66e+03  1.68e+04     0s
   1   2.43835017e+05 -2.01221299e+07  4.79e-01 3.05e-11  3.10e+03     0s
   2   6.63118211e+04 -6.23773554e+06  1.09e-01 2.84e-11  7.05e+02     0s
   3   3.72296121e+04 -1.23598464e+06  2.77e-02 3.27e-11  1.29e+02     0s
   4   2.37536702e+04 -1.80253072e+05  1.02e-03 3.27e-11  1.87e+01     0s
   5   1.07546959e+04 -3.55831206e+04  1.52e-04 4.21e-11  4.21e+00     0s
   6   2.89833062e+03 -3.60165424e+03  3.29e-05 7.28e-12  5.90e-01     0s
   7   6.20980969e+02 -2.36763154e+03  1.46e-06 1.46e-11  2.71e-01     0s
   8   4.13498886e+02 -4.39793240e+02  1.54e-07 7.28e-12  7.75e-02     0s
   9   3.14439407e+02 -8.04415878e+00  6.79e-08 7.28e-12  2.93e-02     0s
  10   2.49099064e+02  1.08050347e+02  2.99e-08 7.28e-12  1.28e-02     0s
  11   2.21946944e+02  1.59719898e+02  1.45e-08 7.28e-12  5.65e-03     0s
  12   2.08422372e+02  1.82068334e+02  6.73e-09 7.28e-12  2.39e-03     0s
  13   2.00032917e+02  1.90303609e+02  2.31e-09 7.28e-12  8.84e-04     0s
  14   1.96465483e+02  1.93895674e+02  5.36e-10 7.28e-12  2.33e-04     0s
  15   1.95409168e+02  1.95178321e+02  6.88e-11 7.28e-12  2.10e-05     0s
  16   1.95243110e+02  1.95218941e+02  2.13e-11 1.09e-11  2.19e-06     0s
  17   1.95225750e+02  1.95224901e+02  1.06e-10 7.28e-12  7.71e-08     0s
  18   1.95225689e+02  1.95225673e+02  3.05e-12 1.09e-11  1.42e-09     0s
  19   1.95225686e+02  1.95225686e+02  3.71e-11 7.28e-12  1.42e-12     0s

Barrier solved model in 19 iterations and 0.09 seconds (0.08 work units)
Optimal objective 1.95225686e+02

Crossover log...

     842 DPushes remaining with DInf 0.0000000e+00                 0s
       0 DPushes remaining with DInf 0.0000000e+00                 0s

     198 PPushes remaining with PInf 0.0000000e+00                 0s
       0 PPushes remaining with PInf 0.0000000e+00                 0s

  Push phase complete: Pinf 0.0000000e+00, Dinf 7.5244387e-12      0s

Iteration    Objective       Primal Inf.    Dual Inf.      Time
     251    1.9522569e+02   0.000000e+00   0.000000e+00      0s

Use crossover to convert LP symmetric solution to basic solution...
Crossover log...

     108 PPushes remaining with PInf 0.0000000e+00                 0s
       0 PPushes remaining with PInf 0.0000000e+00                 0s

  Push phase complete: Pinf 0.0000000e+00, Dinf 1.1807724e-12      0s

Iteration    Objective       Primal Inf.    Dual Inf.      Time
     362    1.9522569e+02   0.000000e+00   0.000000e+00      0s

Solved in 362 iterations and 0.12 seconds (0.10 work units)
Optimal objective  1.952256856e+02
